letting n_nurses=25
letting n_days=7
letting n_shift_types=4
letting max_covers=8
letting t_covers=87
letting covers=[8,3,4,0,7,2,4,0,7,7,3,0,3,3,2,0,4,2,4,0,5,6,3,0,5,3,2,0]
letting prefes=[1,1,1,3,1,1,4,1,1,1,1,1,1,3,4,1,1,1,1,1,1,1,4,1,1,1,1,1,1,4,1,3,1,1,4,1,4,1,4,1,4,1,1,1,4,1,4,1,1,1,4,1,4,1,4,1,1,4,1,3,4,1,4,1,4,1,4,3,1,1,4,1,4,1,4,3,4,1,4,1,4,1,4,3,1,1,3,2,4,1,4,1,4,1,4,3,4,3,4,1,4,1,4,3,4,1,4,1,4,1,4,3,1,1,1,3,4,2,4,1,4,1,4,3,1,1,4,1,4,1,4,3,4,2,4,1,4,1,4,3,1,1,1,3,1,1,4,1,1,1,4,3,4,3,1,1,1,1,4,3,1,1,4,1,1,1,4,3,4,1,1,3,4,1,4,1,4,1,4,3,4,3,4,1,4,1,4,3,4,1,4,1,4,1,4,3,1,1,1,3,4,1,4,2,4,1,4,3,4,1,4,2,4,1,4,3,4,1,4,2,4,1,4,3,1,1,1,3,4,1,4,1,4,1,4,3,4,1,4,1,4,1,4,3,4,1,4,1,4,1,4,3,4,1,1,3,4,1,1,2,4,1,4,3,4,1,4,2,4,1,4,3,4,1,1,2,4,1,4,3,1,1,1,3,4,1,4,1,4,3,4,3,4,1,4,1,4,3,4,3,4,1,4,1,4,3,4,3,1,1,3,3,4,1,1,1,4,3,4,3,4,1,4,1,4,3,4,3,4,1,1,1,4,3,4,3,1,1,1,3,4,1,4,2,4,1,4,1,4,3,1,2,4,1,4,1,4,1,4,2,4,1,4,1,1,1,1,3,1,1,4,1,1,1,1,3,4,1,4,1,1,1,1,3,1,1,4,1,1,1,1,3,4,1,3,2,4,1,4,2,4,3,4,3,4,1,4,2,4,3,4,3,4,1,4,2,4,3,4,3,4,1,1,2,4,1,4,2,4,1,4,3,4,1,4,2,4,1,4,3,4,1,4,2,4,1,4,3,1,1,1,3,4,1,4,1,4,1,1,1,4,1,4,1,4,1,1,1,4,1,4,1,4,1,1,1,1,1,1,3,4,1,4,1,4,1,4,3,1,1,4,1,4,1,4,3,4,1,4,1,4,1,4,3,4,1,1,3,4,2,1,1,4,1,1,3,4,1,4,1,4,1,1,3,4,2,1,1,4,1,1,3,1,1,1,3,4,2,4,1,4,1,4,3,4,1,1,1,4,1,4,3,4,2,4,1,4,1,4,3,1,4,1,3,4,2,4,1,4,1,1,3,4,1,1,1,4,1,1,3,4,2,4,1,4,1,1,3,1,4,1,2,4,1,1,1,1,1,4,1,4,1,4,1,1,1,4,1,4,1,1,1,1,1,4,1,1,4,3,3,4,2,1,1,4,3,4,3,1,1,4,1,4,3,4,3,4,2,1,1,4,3,4,3,1,1,3,3,4,1,4,1,4,3,4,3,4,1,4,1,4,3,4,3,4,1,4,1,4,3,4,3,1,1,1,2,1,1,4,1,1,1,4,3,4,1,4,1,1,1,4,3,1,1,4,1,1,1,4,3]
letting ub =  225
